/CLEAR,NOSTART                 ! 独立模型；SI单位m、N、K、Pa
/FILNAME,lesson22               ! 设置本课输出前缀
/PREP7                         ! 进入前处理
length0=0.40                   ! 两个等效板条长度m
width0=0.004                   ! 板条宽度m，沿X模拟热梯度
gap0=0.003                     ! 初始流道间距m
ny0=40                        ! 轴向单元数
nx0=4                         ! 宽度方向单元数
ET,1,PLANE182                  ! 二维四节点结构单元，默认平面应力
MP,EX,1,1.9e11                 ! 教学弹性模量Pa
MP,PRXY,1,0.30                 ! 泊松比
MP,ALPX,1,1.2e-5               ! 线膨胀系数1/K
TREF,550                       ! 无热应变参考温度K
*DO,ir,1,2                     ! 分别创建左右两根等效板条
base0=(ir-1)*10000             ! 为右板条分配独立节点编号
xbase0=(ir-1)*(width0+gap0)     ! 板条左边缘坐标m
*DO,jj,0,ny0                   ! 轴向节点循环
*DO,ii,0,nx0                   ! 宽度节点循环
nid0=base0+jj*(nx0+1)+ii+1     ! 结构化节点编号
N,nid0,xbase0+width0*ii/nx0,length0*jj/ny0 ! 节点坐标m
*ENDDO                         ! 结束宽度节点循环
*ENDDO                         ! 结束轴向节点循环
*DO,jj,0,ny0-1                 ! 轴向单元循环
*DO,ii,0,nx0-1                 ! 宽度单元循环
nid0=base0+jj*(nx0+1)+ii+1     ! 当前单元左下节点
E,nid0,nid0+1,nid0+nx0+2,nid0+nx0+1 ! 逆时针创建四节点单元
*ENDDO                         ! 结束宽度单元循环
*ENDDO                         ! 结束轴向单元循环
*ENDDO                         ! 完成两根板条
NSEL,S,LOC,Y,0                 ! 选底边节点
D,ALL,ALL,0                    ! 底边固支，抑制刚体运动
ALLSEL,ALL                     ! 恢复完整模型
FINISH                         ! 完成前处理
*CFOPEN,channel_scan,csv        ! 打开参数扫描结果
*DO,icase,1,3                  ! 三个热梯度工况
dtemp0=2*icase                 ! 跨板条温差为2、4、6 K
/SOLU                          ! 开始当前工况
ANTYPE,STATIC                  ! 线性静力热变形
NLGEOM,OFF                     ! 小变形；不计算接触或流动反馈
*DO,ir,1,2                     ! 两条板分别施加相反温度梯度
base0=(ir-1)*10000             ! 当前板节点编号起点
sign0=2*ir-3                   ! 左板负梯度，右板正梯度，向流道弯曲
*DO,jj,0,ny0                   ! 遍历轴向节点
*DO,ii,0,nx0                   ! 遍历宽度节点
nid0=base0+jj*(nx0+1)+ii+1     ! 当前节点
temp0=550+sign0*dtemp0*(ii/nx0-0.5) ! 指定线性温度场K，非热分析结果
BF,nid0,TEMP,temp0             ! 节点热膨胀载荷
*ENDDO                         ! 结束宽度载荷循环
*ENDDO                         ! 结束轴向载荷循环
*ENDDO                         ! 完成两块板载荷
SOLVE                          ! 求解当前静力工况
FINISH                         ! 结束求解器
/POST1                         ! 读取当前工况结果
SET,LAST                       ! 最新位移结果
gmin0=gap0                     ! 初始化最小流道间距m
*DO,jj,0,ny0                   ! 比较同轴向坐标的相对两面位移
nleft0=jj*(nx0+1)+nx0+1        ! 左板流道侧节点
nright0=10000+jj*(nx0+1)+1     ! 右板流道侧节点
*GET,ul0,NODE,nleft0,U,X       ! 左侧表面X位移m
*GET,ur0,NODE,nright0,U,X      ! 右侧表面X位移m
gnew0=gap0+ur0-ul0             ! 变形后的局部流道宽度m
*IF,gnew0,LT,gmin0,THEN        ! 更新最小值，负值表示模型需要接触处理
gmin0=gnew0                    ! 保存局部最小宽度
*ENDIF                         ! 结束最小值判断
*ENDDO                         ! 结束流道轴向检查
*VWRITE,icase,dtemp0,gmin0      ! 下一行CSV记录工况、跨宽温差和最小间距
(F8.0,',',E20.10,',',E20.10)
FINISH                         ! 结束当前后处理
*ENDDO                         ! 结束三工况扫描
*CFCLOS                        ! 关闭结果文件
