/CLEAR,NOSTART                 ! 独立教学模型；SI单位m、N、K、Pa
/FILNAME,lesson23_th            ! 热分析文件前缀
/PREP7                         ! 前处理
length0=0.10                   ! 板长m
width0=0.03                    ! 板宽m
thick0=0.002                   ! 板厚m
ET,1,SOLID70                   ! 八节点三维热实体
MP,KXX,1,16                    ! 等效导热率W/(m K)，非真实复合燃料
MP,EX,1,1.9e11                 ! 等效弹性模量Pa
MP,PRXY,1,0.30                 ! 泊松比
MP,ALPX,1,1.2e-5               ! 等效膨胀系数1/K
BLOCK,0,length0,0,width0,0,thick0 ! 创建板型燃料等效实体
ESIZE,0.001                    ! 一毫米网格，厚度约两层；可减半检查
MSHKEY,1                       ! 映射网格
MSHAPE,0,3D                    ! 三维六面体网格
VMESH,ALL                      ! 对板体划分网格
NSEL,S,LOC,Z,0                 ! 选板下表面
D,ALL,TEMP,550                 ! 下表面固定温度K
NSEL,S,LOC,Z,thick0            ! 选板上表面
D,ALL,TEMP,650                 ! 上表面固定温度K，形成弯曲驱动
ALLSEL,ALL                     ! 侧面无载荷即绝热
FINISH                         ! 结束前处理
/SOLU                          ! 热求解
ANTYPE,STATIC                  ! 稳态导热
SOLVE                          ! 求解热场
FINISH                         ! 结束热求解
/POST1                         ! 热后处理
SET,LAST                       ! 读取热结果
PLNSOL,TEMP                    ! 绘制温度场
*GET,ncount0,NODE,0,COUNT       ! 取得全模型节点数
*GET,nid0,NODE,0,NUM,MIN        ! 从最小节点编号开始遍历
tmin0=1e20                     ! 初始化温度下界K
tmax0=-1e20                    ! 初始化温度上界K
*DO,ii,1,ncount0               ! 遍历热结果节点
*GET,tval0,NODE,nid0,TEMP       ! 当前节点温度K
tmin0=MIN(tmin0,tval0)          ! 累计最低温度K
tmax0=MAX(tmax0,tval0)          ! 累计最高温度K
*GET,nid0,NODE,nid0,NXTH        ! 下一个已选择节点编号
*ENDDO                         ! 结束热结果遍历
*CFOPEN,thermal_range,csv       ! 打开温度校核文件
*VWRITE,tmin0,tmax0             ! 下一行为温度最小最大值CSV
(E20.10,',',E20.10)
*CFCLOS                        ! 关闭温度输出文件
FINISH                         ! 结束热后处理
/PREP7                         ! 转换为结构模型
DDELE,ALL,TEMP                 ! 删除温度约束，防止留在结构求解
ETCHG,TTS                      ! 将SOLID70转为对应结构单元SOLID185
NSEL,S,LOC,X,0                 ! 板根部节点
D,ALL,ALL,0                    ! 根部全自由度固支
ALLSEL,ALL                     ! 恢复全部节点
TREF,550                       ! 无热应变参考温度K
LDREAD,TEMP,1,,,,lesson23_th,rth ! 从热结果第一载荷步传递节点温度
FINISH                         ! 完成载荷转换
/FILNAME,lesson23_st            ! 独立结构结果前缀，保留热结果文件
/SOLU                          ! 结构求解器
ANTYPE,STATIC                  ! 热应力静力分析
NLGEOM,ON                      ! 计入几何非线性，需检查收敛
NSUBST,20,100,10               ! 初始、最大与最小子步数量
SOLVE                          ! 求解热弯曲与应力
FINISH                         ! 结束结构求解
/POST1                         ! 结构后处理
SET,LAST                       ! 读取最后收敛结果
PLNSOL,U,Z                     ! 显示法向弯曲位移m
PLNSOL,S,EQV                   ! 显示等效应力Pa，根部奇异峰值不作安全限值
PRRSOL,F                       ! 输出支承反力，检查平衡
*GET,ncount0,NODE,0,COUNT       ! 全部结构节点数
*GET,nid0,NODE,0,NUM,MIN        ! 从最小编号开始
uzmin0=1e20                    ! 初始化Z位移下界m
uzmax0=-1e20                   ! 初始化Z位移上界m
*DO,ii,1,ncount0               ! 遍历结构节点
*GET,uz0,NODE,nid0,U,Z         ! 节点Z方向位移m
uzmin0=MIN(uzmin0,uz0)          ! 累计最小Z位移m
uzmax0=MAX(uzmax0,uz0)          ! 累计最大Z位移m
*GET,nid0,NODE,nid0,NXTH        ! 下一个选择节点
*ENDDO                         ! 完成结构结果遍历
*CFOPEN,bending_range,csv       ! 打开弯曲校核文件
*VWRITE,uzmin0,uzmax0           ! 下一行为Z位移最小最大值CSV
(E20.10,',',E20.10)
*CFCLOS                        ! 关闭位移文件
FINISH                         ! 完成本课
