/CLEAR,NOSTART                 ! 独立新建模型，SI单位m、N、kg、s、Pa
/FILNAME,lesson21               ! 设置本课结果文件前缀
/PREP7                         ! 进入前处理
height0=1.6                    ! 教学导向管长度m，不是真实组件尺寸
spacing0=0.03                  ! 两根导向管轴线间距m
nelem0=40                      ! 每根管轴向单元数，改80检查网格
ET,1,BEAM188                   ! 三维Timoshenko梁，保留剪切与转动
KEYOPT,1,3,3                   ! 三次插值
MP,EX,1,1.9e11                 ! 钢弹性模量Pa，教学常数
MP,PRXY,1,0.30                 ! 泊松比，无量纲
MP,DENS,1,7800                 ! 密度kg/m^3，模态质量所需
SECTYPE,1,BEAM,CTUBE           ! 导向管圆管截面
SECDATA,0.008,0.010,16         ! 内外半径m及周向积分分段
SECTYPE,2,BEAM,RECT            ! 格架等效横梁截面
SECDATA,0.002,0.010            ! 宽与高m；刚度是等效教学输入
TYPE,1                        ! 后续梁使用单元类型1
MAT,1                         ! 使用钢材料
SECNUM,1                      ! 创建导向管时用圆管截面
*DO,jj,0,nelem0                ! 沿轴向创建两列节点
N,jj+1,0,0,height0*jj/nelem0  ! 左导向管节点
N,1000+jj+1,spacing0,0,height0*jj/nelem0 ! 右导向管节点
*ENDDO                        ! 结束节点循环
*DO,jj,1,nelem0                ! 创建两根管的轴向梁单元
E,jj,jj+1                     ! 左管轴向单元
E,1000+jj,1000+jj+1            ! 右管轴向单元
*ENDDO                        ! 结束管单元循环
SECNUM,2                      ! 格架切换到矩形截面
midnode0=nelem0/2+1            ! 网格加密时保持格架位于几何中点
topnode0=nelem0+1              ! 顶部节点随单元数更新
E,midnode0,1000+midnode0        ! 中部格架连接两根管
E,topnode0,1000+topnode0        ! 顶部格架连接两根管
D,1,ALL,0                     ! 左管底部全自由度固定
D,1001,ALL,0                  ! 右管底部全自由度固定
ALLSEL,ALL                    ! 恢复完整选择集
FINISH                        ! 完成前处理
/SOLU                         ! 进入求解器
ANTYPE,MODAL                  ! 无预应力线性模态分析
MODOPT,LANB,6                 ! Block Lanczos提取前六阶
MXPAND,6,,,YES                ! 展开模态并计算单元结果
SOLVE                         ! 求解模态
FINISH                        ! 结束求解
/POST1                        ! 后处理
SET,1,1                       ! 读取第一阶结果
*GET,freq1,MODE,1,FREQ         ! 提取第一阶频率Hz
PLDISP,2                      ! 显示放大模态形状，非实际振幅
*CFOPEN,frequencies,csv        ! 打开频率文件
*DO,jj,1,6                    ! 导出六阶频率
*GET,freq0,MODE,jj,FREQ        ! 当前模态频率Hz
*VWRITE,jj,freq0               ! 下一行为两个数值的CSV格式
(F8.0,',',E20.10)
*ENDDO                        ! 结束频率输出循环
*CFCLOS                       ! 关闭输出文件
FINISH                        ! 完成本课
